(declare-fun b_ack!778 () (_ BitVec 32))
(declare-fun a_ack!780 () (_ BitVec 32))
(declare-fun c_ack!779 () (_ BitVec 64))
(assert (not (bvslt b_ack!778 #x00000000)))
(assert (not (bvslt a_ack!780 #x00000000)))
(assert (not (= #x00000000 b_ack!778)))
(assert (not (= #x00000001 b_ack!778)))
(assert (not (= #x00000000 a_ack!780)))
(assert (not (= #x00000001 a_ack!780)))
(assert (not (bvslt (bvsub b_ack!778 a_ack!780) #x00000000)))
(assert (not (bvslt (bvsub b_ack!778 a_ack!780) #x00000000)))
(assert (not (= #x00000000 (bvsub b_ack!778 a_ack!780))))
(assert (not (= #x00000001 (bvsub b_ack!778 a_ack!780))))
(assert (not (fp.eq ((_ to_fp 11 53) c_ack!779) ((_ to_fp 11 53) #x0000000000000000))))
(assert (not (fp.gt (fp.abs ((_ to_fp 11 53) c_ack!779))
            ((_ to_fp 11 53) #x3ff0000000000000))))

(check-sat)
(exit)
